GLPSOL--GLPK LP/MIP Solver 5.0
Parameter(s) specified in the command line:
 --lp ../modeles/20_229.lp --log 20_229.log
Reading problem data from '../modeles/20_229.lp'...
4661 rows, 9200 columns, 32160 non-zeros
4580 integer variables, all of which are binary
13887 lines were read
GLPK Integer Optimizer 5.0
4661 rows, 9200 columns, 32160 non-zeros
4580 integer variables, all of which are binary
Preprocessing...
4520 constraint coefficient(s) were reduced
4661 rows, 9180 columns, 32140 non-zeros
4580 integer variables, all of which are binary
Scaling...
 A: min|aij| =  7.628e-05  max|aij| =  4.000e+00  ratio =  5.244e+04
GM: min|aij| =  6.608e-02  max|aij| =  1.513e+01  ratio =  2.290e+02
EQ: min|aij| =  4.367e-03  max|aij| =  1.000e+00  ratio =  2.290e+02
2N: min|aij| =  3.906e-03  max|aij| =  1.752e+00  ratio =  4.486e+02
Constructing initial basis...
Size of triangular part is 4661
Solving LP relaxation...
GLPK Simplex Optimizer 5.0
4661 rows, 9180 columns, 32140 non-zeros
      0: obj =   4.000000000e+01 inf =   9.950e+01 (41)
Perturbing LP to avoid stalling [199]...
    299: obj =   4.992467582e-01 inf =   0.000e+00 (0)
Removing LP perturbation [1055]...
*  1055: obj =  -4.469306349e+00 inf =   1.442e-14 (0) 1
OPTIMAL LP SOLUTION FOUND
Integer optimization begins...
Long-step dual simplex will be used
+  1055: mip =     not found yet >=              -inf        (1; 0)
+  1369: >>>>>  -4.469306349e+00 >=  -4.469306349e+00 < 0.1% (308; 0)
+  1369: mip =  -4.469306349e+00 >=     tree is empty   0.0% (0; 615)
INTEGER OPTIMAL SOLUTION FOUND
Time used:   3.3 secs
Memory used: 13.4 Mb (14021902 bytes)
